; benchmark generated from python API
(set-info :status unknown)
(declare-fun cell_1_2 () Int)
(declare-fun cell_1_6 () Int)
(declare-fun cell_2_1 () Int)
(declare-fun cell_2_7 () Int)
(declare-fun cell_3_5 () Int)
(declare-fun cell_3_8 () Int)
(declare-fun cell_4_8 () Int)
(declare-fun cell_4_9 () Int)
(declare-fun cell_5_5 () Int)
(declare-fun cell_6_3 () Int)
(declare-fun cell_7_7 () Int)
(declare-fun cell_8_2 () Int)
(declare-fun cell_9_4 () Int)
(declare-fun cell_1_1 () Int)
(declare-fun cell_3_1 () Int)
(declare-fun cell_4_1 () Int)
(declare-fun cell_5_1 () Int)
(declare-fun cell_6_1 () Int)
(declare-fun cell_7_1 () Int)
(declare-fun cell_8_1 () Int)
(declare-fun cell_9_1 () Int)
(declare-fun cell_2_2 () Int)
(declare-fun cell_3_2 () Int)
(declare-fun cell_4_2 () Int)
(declare-fun cell_5_2 () Int)
(declare-fun cell_6_2 () Int)
(declare-fun cell_7_2 () Int)
(declare-fun cell_9_2 () Int)
(declare-fun cell_1_3 () Int)
(declare-fun cell_2_3 () Int)
(declare-fun cell_3_3 () Int)
(declare-fun cell_4_3 () Int)
(declare-fun cell_5_3 () Int)
(declare-fun cell_7_3 () Int)
(declare-fun cell_8_3 () Int)
(declare-fun cell_9_3 () Int)
(declare-fun cell_1_4 () Int)
(declare-fun cell_2_4 () Int)
(declare-fun cell_3_4 () Int)
(declare-fun cell_4_4 () Int)
(declare-fun cell_5_4 () Int)
(declare-fun cell_6_4 () Int)
(declare-fun cell_7_4 () Int)
(declare-fun cell_8_4 () Int)
(declare-fun cell_1_5 () Int)
(declare-fun cell_2_5 () Int)
(declare-fun cell_4_5 () Int)
(declare-fun cell_6_5 () Int)
(declare-fun cell_7_5 () Int)
(declare-fun cell_8_5 () Int)
(declare-fun cell_9_5 () Int)
(declare-fun cell_2_6 () Int)
(declare-fun cell_3_6 () Int)
(declare-fun cell_4_6 () Int)
(declare-fun cell_5_6 () Int)
(declare-fun cell_6_6 () Int)
(declare-fun cell_7_6 () Int)
(declare-fun cell_8_6 () Int)
(declare-fun cell_9_6 () Int)
(declare-fun cell_1_7 () Int)
(declare-fun cell_3_7 () Int)
(declare-fun cell_4_7 () Int)
(declare-fun cell_5_7 () Int)
(declare-fun cell_6_7 () Int)
(declare-fun cell_8_7 () Int)
(declare-fun cell_9_7 () Int)
(declare-fun cell_1_8 () Int)
(declare-fun cell_2_8 () Int)
(declare-fun cell_5_8 () Int)
(declare-fun cell_6_8 () Int)
(declare-fun cell_7_8 () Int)
(declare-fun cell_8_8 () Int)
(declare-fun cell_9_8 () Int)
(declare-fun cell_1_9 () Int)
(declare-fun cell_2_9 () Int)
(declare-fun cell_3_9 () Int)
(declare-fun cell_5_9 () Int)
(declare-fun cell_6_9 () Int)
(declare-fun cell_7_9 () Int)
(declare-fun cell_8_9 () Int)
(declare-fun cell_9_9 () Int)
(assert
 (= cell_1_2 2))
(assert
 (= cell_1_6 1))
(assert
 (= cell_2_1 1))
(assert
 (= cell_2_7 2))
(assert
 (= cell_3_5 2))
(assert
 (= cell_3_8 1))
(assert
 (= cell_4_8 2))
(assert
 (= cell_4_9 1))
(assert
 (= cell_5_5 1))
(assert
 (= cell_6_3 1))
(assert
 (= cell_7_7 1))
(assert
 (= cell_8_2 1))
(assert
 (= cell_9_4 1))
(assert
 (let (($x137 (= cell_1_1 9)))
 (let (($x135 (= cell_1_1 8)))
 (let (($x133 (= cell_1_1 7)))
 (let (($x131 (= cell_1_1 6)))
 (let (($x129 (= cell_1_1 5)))
 (let (($x127 (= cell_1_1 4)))
 (let (($x125 (= cell_1_1 3)))
 (let (($x123 (= cell_1_1 2)))
 (let (($x122 (= cell_1_1 1)))
 (or $x122 $x123 $x125 $x127 $x129 $x131 $x133 $x135 $x137)))))))))))
(assert
 (let (($x146 (= cell_2_1 9)))
 (let (($x145 (= cell_2_1 8)))
 (let (($x144 (= cell_2_1 7)))
 (let (($x143 (= cell_2_1 6)))
 (let (($x142 (= cell_2_1 5)))
 (let (($x141 (= cell_2_1 4)))
 (let (($x140 (= cell_2_1 3)))
 (let (($x139 (= cell_2_1 2)))
 (let (($x111 (= cell_2_1 1)))
 (or $x111 $x139 $x140 $x141 $x142 $x143 $x144 $x145 $x146)))))))))))
(assert
 (let (($x156 (= cell_3_1 9)))
 (let (($x155 (= cell_3_1 8)))
 (let (($x154 (= cell_3_1 7)))
 (let (($x153 (= cell_3_1 6)))
 (let (($x152 (= cell_3_1 5)))
 (let (($x151 (= cell_3_1 4)))
 (let (($x150 (= cell_3_1 3)))
 (let (($x149 (= cell_3_1 2)))
 (let (($x148 (= cell_3_1 1)))
 (or $x148 $x149 $x150 $x151 $x152 $x153 $x154 $x155 $x156)))))))))))
(assert
 (let (($x166 (= cell_4_1 9)))
 (let (($x165 (= cell_4_1 8)))
 (let (($x164 (= cell_4_1 7)))
 (let (($x163 (= cell_4_1 6)))
 (let (($x162 (= cell_4_1 5)))
 (let (($x161 (= cell_4_1 4)))
 (let (($x160 (= cell_4_1 3)))
 (let (($x159 (= cell_4_1 2)))
 (let (($x158 (= cell_4_1 1)))
 (or $x158 $x159 $x160 $x161 $x162 $x163 $x164 $x165 $x166)))))))))))
(assert
 (let (($x176 (= cell_5_1 9)))
 (let (($x175 (= cell_5_1 8)))
 (let (($x174 (= cell_5_1 7)))
 (let (($x173 (= cell_5_1 6)))
 (let (($x172 (= cell_5_1 5)))
 (let (($x171 (= cell_5_1 4)))
 (let (($x170 (= cell_5_1 3)))
 (let (($x169 (= cell_5_1 2)))
 (let (($x168 (= cell_5_1 1)))
 (or $x168 $x169 $x170 $x171 $x172 $x173 $x174 $x175 $x176)))))))))))
(assert
 (let (($x186 (= cell_6_1 9)))
 (let (($x185 (= cell_6_1 8)))
 (let (($x184 (= cell_6_1 7)))
 (let (($x183 (= cell_6_1 6)))
 (let (($x182 (= cell_6_1 5)))
 (let (($x181 (= cell_6_1 4)))
 (let (($x180 (= cell_6_1 3)))
 (let (($x179 (= cell_6_1 2)))
 (let (($x178 (= cell_6_1 1)))
 (or $x178 $x179 $x180 $x181 $x182 $x183 $x184 $x185 $x186)))))))))))
(assert
 (let (($x196 (= cell_7_1 9)))
 (let (($x195 (= cell_7_1 8)))
 (let (($x194 (= cell_7_1 7)))
 (let (($x193 (= cell_7_1 6)))
 (let (($x192 (= cell_7_1 5)))
 (let (($x191 (= cell_7_1 4)))
 (let (($x190 (= cell_7_1 3)))
 (let (($x189 (= cell_7_1 2)))
 (let (($x188 (= cell_7_1 1)))
 (or $x188 $x189 $x190 $x191 $x192 $x193 $x194 $x195 $x196)))))))))))
(assert
 (let (($x206 (= cell_8_1 9)))
 (let (($x205 (= cell_8_1 8)))
 (let (($x204 (= cell_8_1 7)))
 (let (($x203 (= cell_8_1 6)))
 (let (($x202 (= cell_8_1 5)))
 (let (($x201 (= cell_8_1 4)))
 (let (($x200 (= cell_8_1 3)))
 (let (($x199 (= cell_8_1 2)))
 (let (($x198 (= cell_8_1 1)))
 (or $x198 $x199 $x200 $x201 $x202 $x203 $x204 $x205 $x206)))))))))))
(assert
 (let (($x216 (= cell_9_1 9)))
 (let (($x215 (= cell_9_1 8)))
 (let (($x214 (= cell_9_1 7)))
 (let (($x213 (= cell_9_1 6)))
 (let (($x212 (= cell_9_1 5)))
 (let (($x211 (= cell_9_1 4)))
 (let (($x210 (= cell_9_1 3)))
 (let (($x209 (= cell_9_1 2)))
 (let (($x208 (= cell_9_1 1)))
 (or $x208 $x209 $x210 $x211 $x212 $x213 $x214 $x215 $x216)))))))))))
(assert
 (let (($x225 (= cell_1_2 9)))
 (let (($x224 (= cell_1_2 8)))
 (let (($x223 (= cell_1_2 7)))
 (let (($x222 (= cell_1_2 6)))
 (let (($x221 (= cell_1_2 5)))
 (let (($x220 (= cell_1_2 4)))
 (let (($x219 (= cell_1_2 3)))
 (let (($x91 (= cell_1_2 2)))
 (let (($x218 (= cell_1_2 1)))
 (or $x218 $x91 $x219 $x220 $x221 $x222 $x223 $x224 $x225)))))))))))
(assert
 (let (($x235 (= cell_2_2 9)))
 (let (($x234 (= cell_2_2 8)))
 (let (($x233 (= cell_2_2 7)))
 (let (($x232 (= cell_2_2 6)))
 (let (($x231 (= cell_2_2 5)))
 (let (($x230 (= cell_2_2 4)))
 (let (($x229 (= cell_2_2 3)))
 (let (($x228 (= cell_2_2 2)))
 (let (($x227 (= cell_2_2 1)))
 (or $x227 $x228 $x229 $x230 $x231 $x232 $x233 $x234 $x235)))))))))))
(assert
 (let (($x245 (= cell_3_2 9)))
 (let (($x244 (= cell_3_2 8)))
 (let (($x243 (= cell_3_2 7)))
 (let (($x242 (= cell_3_2 6)))
 (let (($x241 (= cell_3_2 5)))
 (let (($x240 (= cell_3_2 4)))
 (let (($x239 (= cell_3_2 3)))
 (let (($x238 (= cell_3_2 2)))
 (let (($x237 (= cell_3_2 1)))
 (or $x237 $x238 $x239 $x240 $x241 $x242 $x243 $x244 $x245)))))))))))
(assert
 (let (($x255 (= cell_4_2 9)))
 (let (($x254 (= cell_4_2 8)))
 (let (($x253 (= cell_4_2 7)))
 (let (($x252 (= cell_4_2 6)))
 (let (($x251 (= cell_4_2 5)))
 (let (($x250 (= cell_4_2 4)))
 (let (($x249 (= cell_4_2 3)))
 (let (($x248 (= cell_4_2 2)))
 (let (($x247 (= cell_4_2 1)))
 (or $x247 $x248 $x249 $x250 $x251 $x252 $x253 $x254 $x255)))))))))))
(assert
 (let (($x265 (= cell_5_2 9)))
 (let (($x264 (= cell_5_2 8)))
 (let (($x263 (= cell_5_2 7)))
 (let (($x262 (= cell_5_2 6)))
 (let (($x261 (= cell_5_2 5)))
 (let (($x260 (= cell_5_2 4)))
 (let (($x259 (= cell_5_2 3)))
 (let (($x258 (= cell_5_2 2)))
 (let (($x257 (= cell_5_2 1)))
 (or $x257 $x258 $x259 $x260 $x261 $x262 $x263 $x264 $x265)))))))))))
(assert
 (let (($x275 (= cell_6_2 9)))
 (let (($x274 (= cell_6_2 8)))
 (let (($x273 (= cell_6_2 7)))
 (let (($x272 (= cell_6_2 6)))
 (let (($x271 (= cell_6_2 5)))
 (let (($x270 (= cell_6_2 4)))
 (let (($x269 (= cell_6_2 3)))
 (let (($x268 (= cell_6_2 2)))
 (let (($x267 (= cell_6_2 1)))
 (or $x267 $x268 $x269 $x270 $x271 $x272 $x273 $x274 $x275)))))))))))
(assert
 (let (($x285 (= cell_7_2 9)))
 (let (($x284 (= cell_7_2 8)))
 (let (($x283 (= cell_7_2 7)))
 (let (($x282 (= cell_7_2 6)))
 (let (($x281 (= cell_7_2 5)))
 (let (($x280 (= cell_7_2 4)))
 (let (($x279 (= cell_7_2 3)))
 (let (($x278 (= cell_7_2 2)))
 (let (($x277 (= cell_7_2 1)))
 (or $x277 $x278 $x279 $x280 $x281 $x282 $x283 $x284 $x285)))))))))))
(assert
 (let (($x294 (= cell_8_2 9)))
 (let (($x293 (= cell_8_2 8)))
 (let (($x292 (= cell_8_2 7)))
 (let (($x291 (= cell_8_2 6)))
 (let (($x290 (= cell_8_2 5)))
 (let (($x289 (= cell_8_2 4)))
 (let (($x288 (= cell_8_2 3)))
 (let (($x287 (= cell_8_2 2)))
 (let (($x120 (= cell_8_2 1)))
 (or $x120 $x287 $x288 $x289 $x290 $x291 $x292 $x293 $x294)))))))))))
(assert
 (let (($x304 (= cell_9_2 9)))
 (let (($x303 (= cell_9_2 8)))
 (let (($x302 (= cell_9_2 7)))
 (let (($x301 (= cell_9_2 6)))
 (let (($x300 (= cell_9_2 5)))
 (let (($x299 (= cell_9_2 4)))
 (let (($x298 (= cell_9_2 3)))
 (let (($x297 (= cell_9_2 2)))
 (let (($x296 (= cell_9_2 1)))
 (or $x296 $x297 $x298 $x299 $x300 $x301 $x302 $x303 $x304)))))))))))
(assert
 (let (($x314 (= cell_1_3 9)))
 (let (($x313 (= cell_1_3 8)))
 (let (($x312 (= cell_1_3 7)))
 (let (($x311 (= cell_1_3 6)))
 (let (($x310 (= cell_1_3 5)))
 (let (($x309 (= cell_1_3 4)))
 (let (($x308 (= cell_1_3 3)))
 (let (($x307 (= cell_1_3 2)))
 (let (($x306 (= cell_1_3 1)))
 (or $x306 $x307 $x308 $x309 $x310 $x311 $x312 $x313 $x314)))))))))))
(assert
 (let (($x324 (= cell_2_3 9)))
 (let (($x323 (= cell_2_3 8)))
 (let (($x322 (= cell_2_3 7)))
 (let (($x321 (= cell_2_3 6)))
 (let (($x320 (= cell_2_3 5)))
 (let (($x319 (= cell_2_3 4)))
 (let (($x318 (= cell_2_3 3)))
 (let (($x317 (= cell_2_3 2)))
 (let (($x316 (= cell_2_3 1)))
 (or $x316 $x317 $x318 $x319 $x320 $x321 $x322 $x323 $x324)))))))))))
(assert
 (let (($x334 (= cell_3_3 9)))
 (let (($x333 (= cell_3_3 8)))
 (let (($x332 (= cell_3_3 7)))
 (let (($x331 (= cell_3_3 6)))
 (let (($x330 (= cell_3_3 5)))
 (let (($x329 (= cell_3_3 4)))
 (let (($x328 (= cell_3_3 3)))
 (let (($x327 (= cell_3_3 2)))
 (let (($x326 (= cell_3_3 1)))
 (or $x326 $x327 $x328 $x329 $x330 $x331 $x332 $x333 $x334)))))))))))
(assert
 (let (($x344 (= cell_4_3 9)))
 (let (($x343 (= cell_4_3 8)))
 (let (($x342 (= cell_4_3 7)))
 (let (($x341 (= cell_4_3 6)))
 (let (($x340 (= cell_4_3 5)))
 (let (($x339 (= cell_4_3 4)))
 (let (($x338 (= cell_4_3 3)))
 (let (($x337 (= cell_4_3 2)))
 (let (($x336 (= cell_4_3 1)))
 (or $x336 $x337 $x338 $x339 $x340 $x341 $x342 $x343 $x344)))))))))))
(assert
 (let (($x354 (= cell_5_3 9)))
 (let (($x353 (= cell_5_3 8)))
 (let (($x352 (= cell_5_3 7)))
 (let (($x351 (= cell_5_3 6)))
 (let (($x350 (= cell_5_3 5)))
 (let (($x349 (= cell_5_3 4)))
 (let (($x348 (= cell_5_3 3)))
 (let (($x347 (= cell_5_3 2)))
 (let (($x346 (= cell_5_3 1)))
 (or $x346 $x347 $x348 $x349 $x350 $x351 $x352 $x353 $x354)))))))))))
(assert
 (let (($x363 (= cell_6_3 9)))
 (let (($x362 (= cell_6_3 8)))
 (let (($x361 (= cell_6_3 7)))
 (let (($x360 (= cell_6_3 6)))
 (let (($x359 (= cell_6_3 5)))
 (let (($x358 (= cell_6_3 4)))
 (let (($x357 (= cell_6_3 3)))
 (let (($x356 (= cell_6_3 2)))
 (let (($x118 (= cell_6_3 1)))
 (or $x118 $x356 $x357 $x358 $x359 $x360 $x361 $x362 $x363)))))))))))
(assert
 (let (($x373 (= cell_7_3 9)))
 (let (($x372 (= cell_7_3 8)))
 (let (($x371 (= cell_7_3 7)))
 (let (($x370 (= cell_7_3 6)))
 (let (($x369 (= cell_7_3 5)))
 (let (($x368 (= cell_7_3 4)))
 (let (($x367 (= cell_7_3 3)))
 (let (($x366 (= cell_7_3 2)))
 (let (($x365 (= cell_7_3 1)))
 (or $x365 $x366 $x367 $x368 $x369 $x370 $x371 $x372 $x373)))))))))))
(assert
 (let (($x383 (= cell_8_3 9)))
 (let (($x382 (= cell_8_3 8)))
 (let (($x381 (= cell_8_3 7)))
 (let (($x380 (= cell_8_3 6)))
 (let (($x379 (= cell_8_3 5)))
 (let (($x378 (= cell_8_3 4)))
 (let (($x377 (= cell_8_3 3)))
 (let (($x376 (= cell_8_3 2)))
 (let (($x375 (= cell_8_3 1)))
 (or $x375 $x376 $x377 $x378 $x379 $x380 $x381 $x382 $x383)))))))))))
(assert
 (let (($x393 (= cell_9_3 9)))
 (let (($x392 (= cell_9_3 8)))
 (let (($x391 (= cell_9_3 7)))
 (let (($x390 (= cell_9_3 6)))
 (let (($x389 (= cell_9_3 5)))
 (let (($x388 (= cell_9_3 4)))
 (let (($x387 (= cell_9_3 3)))
 (let (($x386 (= cell_9_3 2)))
 (let (($x385 (= cell_9_3 1)))
 (or $x385 $x386 $x387 $x388 $x389 $x390 $x391 $x392 $x393)))))))))))
(assert
 (let (($x403 (= cell_1_4 9)))
 (let (($x402 (= cell_1_4 8)))
 (let (($x401 (= cell_1_4 7)))
 (let (($x400 (= cell_1_4 6)))
 (let (($x399 (= cell_1_4 5)))
 (let (($x398 (= cell_1_4 4)))
 (let (($x397 (= cell_1_4 3)))
 (let (($x396 (= cell_1_4 2)))
 (let (($x395 (= cell_1_4 1)))
 (or $x395 $x396 $x397 $x398 $x399 $x400 $x401 $x402 $x403)))))))))))
(assert
 (let (($x413 (= cell_2_4 9)))
 (let (($x412 (= cell_2_4 8)))
 (let (($x411 (= cell_2_4 7)))
 (let (($x410 (= cell_2_4 6)))
 (let (($x409 (= cell_2_4 5)))
 (let (($x408 (= cell_2_4 4)))
 (let (($x407 (= cell_2_4 3)))
 (let (($x406 (= cell_2_4 2)))
 (let (($x405 (= cell_2_4 1)))
 (or $x405 $x406 $x407 $x408 $x409 $x410 $x411 $x412 $x413)))))))))))
(assert
 (let (($x423 (= cell_3_4 9)))
 (let (($x422 (= cell_3_4 8)))
 (let (($x421 (= cell_3_4 7)))
 (let (($x420 (= cell_3_4 6)))
 (let (($x419 (= cell_3_4 5)))
 (let (($x418 (= cell_3_4 4)))
 (let (($x417 (= cell_3_4 3)))
 (let (($x416 (= cell_3_4 2)))
 (let (($x415 (= cell_3_4 1)))
 (or $x415 $x416 $x417 $x418 $x419 $x420 $x421 $x422 $x423)))))))))))
(assert
 (let (($x433 (= cell_4_4 9)))
 (let (($x432 (= cell_4_4 8)))
 (let (($x431 (= cell_4_4 7)))
 (let (($x430 (= cell_4_4 6)))
 (let (($x429 (= cell_4_4 5)))
 (let (($x428 (= cell_4_4 4)))
 (let (($x427 (= cell_4_4 3)))
 (let (($x426 (= cell_4_4 2)))
 (let (($x425 (= cell_4_4 1)))
 (or $x425 $x426 $x427 $x428 $x429 $x430 $x431 $x432 $x433)))))))))))
(assert
 (let (($x443 (= cell_5_4 9)))
 (let (($x442 (= cell_5_4 8)))
 (let (($x441 (= cell_5_4 7)))
 (let (($x440 (= cell_5_4 6)))
 (let (($x439 (= cell_5_4 5)))
 (let (($x438 (= cell_5_4 4)))
 (let (($x437 (= cell_5_4 3)))
 (let (($x436 (= cell_5_4 2)))
 (let (($x435 (= cell_5_4 1)))
 (or $x435 $x436 $x437 $x438 $x439 $x440 $x441 $x442 $x443)))))))))))
(assert
 (let (($x453 (= cell_6_4 9)))
 (let (($x452 (= cell_6_4 8)))
 (let (($x451 (= cell_6_4 7)))
 (let (($x450 (= cell_6_4 6)))
 (let (($x449 (= cell_6_4 5)))
 (let (($x448 (= cell_6_4 4)))
 (let (($x447 (= cell_6_4 3)))
 (let (($x446 (= cell_6_4 2)))
 (let (($x445 (= cell_6_4 1)))
 (or $x445 $x446 $x447 $x448 $x449 $x450 $x451 $x452 $x453)))))))))))
(assert
 (let (($x463 (= cell_7_4 9)))
 (let (($x462 (= cell_7_4 8)))
 (let (($x461 (= cell_7_4 7)))
 (let (($x460 (= cell_7_4 6)))
 (let (($x459 (= cell_7_4 5)))
 (let (($x458 (= cell_7_4 4)))
 (let (($x457 (= cell_7_4 3)))
 (let (($x456 (= cell_7_4 2)))
 (let (($x455 (= cell_7_4 1)))
 (or $x455 $x456 $x457 $x458 $x459 $x460 $x461 $x462 $x463)))))))))))
(assert
 (let (($x473 (= cell_8_4 9)))
 (let (($x472 (= cell_8_4 8)))
 (let (($x471 (= cell_8_4 7)))
 (let (($x470 (= cell_8_4 6)))
 (let (($x469 (= cell_8_4 5)))
 (let (($x468 (= cell_8_4 4)))
 (let (($x467 (= cell_8_4 3)))
 (let (($x466 (= cell_8_4 2)))
 (let (($x465 (= cell_8_4 1)))
 (or $x465 $x466 $x467 $x468 $x469 $x470 $x471 $x472 $x473)))))))))))
(assert
 (let (($x482 (= cell_9_4 9)))
 (let (($x481 (= cell_9_4 8)))
 (let (($x480 (= cell_9_4 7)))
 (let (($x479 (= cell_9_4 6)))
 (let (($x478 (= cell_9_4 5)))
 (let (($x477 (= cell_9_4 4)))
 (let (($x476 (= cell_9_4 3)))
 (let (($x475 (= cell_9_4 2)))
 (let (($x121 (= cell_9_4 1)))
 (or $x121 $x475 $x476 $x477 $x478 $x479 $x480 $x481 $x482)))))))))))
(assert
 (let (($x492 (= cell_1_5 9)))
 (let (($x491 (= cell_1_5 8)))
 (let (($x490 (= cell_1_5 7)))
 (let (($x489 (= cell_1_5 6)))
 (let (($x488 (= cell_1_5 5)))
 (let (($x487 (= cell_1_5 4)))
 (let (($x486 (= cell_1_5 3)))
 (let (($x485 (= cell_1_5 2)))
 (let (($x484 (= cell_1_5 1)))
 (or $x484 $x485 $x486 $x487 $x488 $x489 $x490 $x491 $x492)))))))))))
(assert
 (let (($x502 (= cell_2_5 9)))
 (let (($x501 (= cell_2_5 8)))
 (let (($x500 (= cell_2_5 7)))
 (let (($x499 (= cell_2_5 6)))
 (let (($x498 (= cell_2_5 5)))
 (let (($x497 (= cell_2_5 4)))
 (let (($x496 (= cell_2_5 3)))
 (let (($x495 (= cell_2_5 2)))
 (let (($x494 (= cell_2_5 1)))
 (or $x494 $x495 $x496 $x497 $x498 $x499 $x500 $x501 $x502)))))))))))
(assert
 (let (($x511 (= cell_3_5 9)))
 (let (($x510 (= cell_3_5 8)))
 (let (($x509 (= cell_3_5 7)))
 (let (($x508 (= cell_3_5 6)))
 (let (($x507 (= cell_3_5 5)))
 (let (($x506 (= cell_3_5 4)))
 (let (($x505 (= cell_3_5 3)))
 (let (($x113 (= cell_3_5 2)))
 (let (($x504 (= cell_3_5 1)))
 (or $x504 $x113 $x505 $x506 $x507 $x508 $x509 $x510 $x511)))))))))))
(assert
 (let (($x521 (= cell_4_5 9)))
 (let (($x520 (= cell_4_5 8)))
 (let (($x519 (= cell_4_5 7)))
 (let (($x518 (= cell_4_5 6)))
 (let (($x517 (= cell_4_5 5)))
 (let (($x516 (= cell_4_5 4)))
 (let (($x515 (= cell_4_5 3)))
 (let (($x514 (= cell_4_5 2)))
 (let (($x513 (= cell_4_5 1)))
 (or $x513 $x514 $x515 $x516 $x517 $x518 $x519 $x520 $x521)))))))))))
(assert
 (let (($x530 (= cell_5_5 9)))
 (let (($x529 (= cell_5_5 8)))
 (let (($x528 (= cell_5_5 7)))
 (let (($x527 (= cell_5_5 6)))
 (let (($x526 (= cell_5_5 5)))
 (let (($x525 (= cell_5_5 4)))
 (let (($x524 (= cell_5_5 3)))
 (let (($x523 (= cell_5_5 2)))
 (let (($x117 (= cell_5_5 1)))
 (or $x117 $x523 $x524 $x525 $x526 $x527 $x528 $x529 $x530)))))))))))
(assert
 (let (($x540 (= cell_6_5 9)))
 (let (($x539 (= cell_6_5 8)))
 (let (($x538 (= cell_6_5 7)))
 (let (($x537 (= cell_6_5 6)))
 (let (($x536 (= cell_6_5 5)))
 (let (($x535 (= cell_6_5 4)))
 (let (($x534 (= cell_6_5 3)))
 (let (($x533 (= cell_6_5 2)))
 (let (($x532 (= cell_6_5 1)))
 (or $x532 $x533 $x534 $x535 $x536 $x537 $x538 $x539 $x540)))))))))))
(assert
 (let (($x550 (= cell_7_5 9)))
 (let (($x549 (= cell_7_5 8)))
 (let (($x548 (= cell_7_5 7)))
 (let (($x547 (= cell_7_5 6)))
 (let (($x546 (= cell_7_5 5)))
 (let (($x545 (= cell_7_5 4)))
 (let (($x544 (= cell_7_5 3)))
 (let (($x543 (= cell_7_5 2)))
 (let (($x542 (= cell_7_5 1)))
 (or $x542 $x543 $x544 $x545 $x546 $x547 $x548 $x549 $x550)))))))))))
(assert
 (let (($x560 (= cell_8_5 9)))
 (let (($x559 (= cell_8_5 8)))
 (let (($x558 (= cell_8_5 7)))
 (let (($x557 (= cell_8_5 6)))
 (let (($x556 (= cell_8_5 5)))
 (let (($x555 (= cell_8_5 4)))
 (let (($x554 (= cell_8_5 3)))
 (let (($x553 (= cell_8_5 2)))
 (let (($x552 (= cell_8_5 1)))
 (or $x552 $x553 $x554 $x555 $x556 $x557 $x558 $x559 $x560)))))))))))
(assert
 (let (($x570 (= cell_9_5 9)))
 (let (($x569 (= cell_9_5 8)))
 (let (($x568 (= cell_9_5 7)))
 (let (($x567 (= cell_9_5 6)))
 (let (($x566 (= cell_9_5 5)))
 (let (($x565 (= cell_9_5 4)))
 (let (($x564 (= cell_9_5 3)))
 (let (($x563 (= cell_9_5 2)))
 (let (($x562 (= cell_9_5 1)))
 (or $x562 $x563 $x564 $x565 $x566 $x567 $x568 $x569 $x570)))))))))))
(assert
 (let (($x579 (= cell_1_6 9)))
 (let (($x578 (= cell_1_6 8)))
 (let (($x577 (= cell_1_6 7)))
 (let (($x576 (= cell_1_6 6)))
 (let (($x575 (= cell_1_6 5)))
 (let (($x574 (= cell_1_6 4)))
 (let (($x573 (= cell_1_6 3)))
 (let (($x572 (= cell_1_6 2)))
 (let (($x110 (= cell_1_6 1)))
 (or $x110 $x572 $x573 $x574 $x575 $x576 $x577 $x578 $x579)))))))))))
(assert
 (let (($x589 (= cell_2_6 9)))
 (let (($x588 (= cell_2_6 8)))
 (let (($x587 (= cell_2_6 7)))
 (let (($x586 (= cell_2_6 6)))
 (let (($x585 (= cell_2_6 5)))
 (let (($x584 (= cell_2_6 4)))
 (let (($x583 (= cell_2_6 3)))
 (let (($x582 (= cell_2_6 2)))
 (let (($x581 (= cell_2_6 1)))
 (or $x581 $x582 $x583 $x584 $x585 $x586 $x587 $x588 $x589)))))))))))
(assert
 (let (($x599 (= cell_3_6 9)))
 (let (($x598 (= cell_3_6 8)))
 (let (($x597 (= cell_3_6 7)))
 (let (($x596 (= cell_3_6 6)))
 (let (($x595 (= cell_3_6 5)))
 (let (($x594 (= cell_3_6 4)))
 (let (($x593 (= cell_3_6 3)))
 (let (($x592 (= cell_3_6 2)))
 (let (($x591 (= cell_3_6 1)))
 (or $x591 $x592 $x593 $x594 $x595 $x596 $x597 $x598 $x599)))))))))))
(assert
 (let (($x609 (= cell_4_6 9)))
 (let (($x608 (= cell_4_6 8)))
 (let (($x607 (= cell_4_6 7)))
 (let (($x606 (= cell_4_6 6)))
 (let (($x605 (= cell_4_6 5)))
 (let (($x604 (= cell_4_6 4)))
 (let (($x603 (= cell_4_6 3)))
 (let (($x602 (= cell_4_6 2)))
 (let (($x601 (= cell_4_6 1)))
 (or $x601 $x602 $x603 $x604 $x605 $x606 $x607 $x608 $x609)))))))))))
(assert
 (let (($x619 (= cell_5_6 9)))
 (let (($x618 (= cell_5_6 8)))
 (let (($x617 (= cell_5_6 7)))
 (let (($x616 (= cell_5_6 6)))
 (let (($x615 (= cell_5_6 5)))
 (let (($x614 (= cell_5_6 4)))
 (let (($x613 (= cell_5_6 3)))
 (let (($x612 (= cell_5_6 2)))
 (let (($x611 (= cell_5_6 1)))
 (or $x611 $x612 $x613 $x614 $x615 $x616 $x617 $x618 $x619)))))))))))
(assert
 (let (($x629 (= cell_6_6 9)))
 (let (($x628 (= cell_6_6 8)))
 (let (($x627 (= cell_6_6 7)))
 (let (($x626 (= cell_6_6 6)))
 (let (($x625 (= cell_6_6 5)))
 (let (($x624 (= cell_6_6 4)))
 (let (($x623 (= cell_6_6 3)))
 (let (($x622 (= cell_6_6 2)))
 (let (($x621 (= cell_6_6 1)))
 (or $x621 $x622 $x623 $x624 $x625 $x626 $x627 $x628 $x629)))))))))))
(assert
 (let (($x639 (= cell_7_6 9)))
 (let (($x638 (= cell_7_6 8)))
 (let (($x637 (= cell_7_6 7)))
 (let (($x636 (= cell_7_6 6)))
 (let (($x635 (= cell_7_6 5)))
 (let (($x634 (= cell_7_6 4)))
 (let (($x633 (= cell_7_6 3)))
 (let (($x632 (= cell_7_6 2)))
 (let (($x631 (= cell_7_6 1)))
 (or $x631 $x632 $x633 $x634 $x635 $x636 $x637 $x638 $x639)))))))))))
(assert
 (let (($x649 (= cell_8_6 9)))
 (let (($x648 (= cell_8_6 8)))
 (let (($x647 (= cell_8_6 7)))
 (let (($x646 (= cell_8_6 6)))
 (let (($x645 (= cell_8_6 5)))
 (let (($x644 (= cell_8_6 4)))
 (let (($x643 (= cell_8_6 3)))
 (let (($x642 (= cell_8_6 2)))
 (let (($x641 (= cell_8_6 1)))
 (or $x641 $x642 $x643 $x644 $x645 $x646 $x647 $x648 $x649)))))))))))
(assert
 (let (($x659 (= cell_9_6 9)))
 (let (($x658 (= cell_9_6 8)))
 (let (($x657 (= cell_9_6 7)))
 (let (($x656 (= cell_9_6 6)))
 (let (($x655 (= cell_9_6 5)))
 (let (($x654 (= cell_9_6 4)))
 (let (($x653 (= cell_9_6 3)))
 (let (($x652 (= cell_9_6 2)))
 (let (($x651 (= cell_9_6 1)))
 (or $x651 $x652 $x653 $x654 $x655 $x656 $x657 $x658 $x659)))))))))))
(assert
 (let (($x669 (= cell_1_7 9)))
 (let (($x668 (= cell_1_7 8)))
 (let (($x667 (= cell_1_7 7)))
 (let (($x666 (= cell_1_7 6)))
 (let (($x665 (= cell_1_7 5)))
 (let (($x664 (= cell_1_7 4)))
 (let (($x663 (= cell_1_7 3)))
 (let (($x662 (= cell_1_7 2)))
 (let (($x661 (= cell_1_7 1)))
 (or $x661 $x662 $x663 $x664 $x665 $x666 $x667 $x668 $x669)))))))))))
(assert
 (let (($x678 (= cell_2_7 9)))
 (let (($x677 (= cell_2_7 8)))
 (let (($x676 (= cell_2_7 7)))
 (let (($x675 (= cell_2_7 6)))
 (let (($x674 (= cell_2_7 5)))
 (let (($x673 (= cell_2_7 4)))
 (let (($x672 (= cell_2_7 3)))
 (let (($x112 (= cell_2_7 2)))
 (let (($x671 (= cell_2_7 1)))
 (or $x671 $x112 $x672 $x673 $x674 $x675 $x676 $x677 $x678)))))))))))
(assert
 (let (($x688 (= cell_3_7 9)))
 (let (($x687 (= cell_3_7 8)))
 (let (($x686 (= cell_3_7 7)))
 (let (($x685 (= cell_3_7 6)))
 (let (($x684 (= cell_3_7 5)))
 (let (($x683 (= cell_3_7 4)))
 (let (($x682 (= cell_3_7 3)))
 (let (($x681 (= cell_3_7 2)))
 (let (($x680 (= cell_3_7 1)))
 (or $x680 $x681 $x682 $x683 $x684 $x685 $x686 $x687 $x688)))))))))))
(assert
 (let (($x698 (= cell_4_7 9)))
 (let (($x697 (= cell_4_7 8)))
 (let (($x696 (= cell_4_7 7)))
 (let (($x695 (= cell_4_7 6)))
 (let (($x694 (= cell_4_7 5)))
 (let (($x693 (= cell_4_7 4)))
 (let (($x692 (= cell_4_7 3)))
 (let (($x691 (= cell_4_7 2)))
 (let (($x690 (= cell_4_7 1)))
 (or $x690 $x691 $x692 $x693 $x694 $x695 $x696 $x697 $x698)))))))))))
(assert
 (let (($x708 (= cell_5_7 9)))
 (let (($x707 (= cell_5_7 8)))
 (let (($x706 (= cell_5_7 7)))
 (let (($x705 (= cell_5_7 6)))
 (let (($x704 (= cell_5_7 5)))
 (let (($x703 (= cell_5_7 4)))
 (let (($x702 (= cell_5_7 3)))
 (let (($x701 (= cell_5_7 2)))
 (let (($x700 (= cell_5_7 1)))
 (or $x700 $x701 $x702 $x703 $x704 $x705 $x706 $x707 $x708)))))))))))
(assert
 (let (($x718 (= cell_6_7 9)))
 (let (($x717 (= cell_6_7 8)))
 (let (($x716 (= cell_6_7 7)))
 (let (($x715 (= cell_6_7 6)))
 (let (($x714 (= cell_6_7 5)))
 (let (($x713 (= cell_6_7 4)))
 (let (($x712 (= cell_6_7 3)))
 (let (($x711 (= cell_6_7 2)))
 (let (($x710 (= cell_6_7 1)))
 (or $x710 $x711 $x712 $x713 $x714 $x715 $x716 $x717 $x718)))))))))))
(assert
 (let (($x727 (= cell_7_7 9)))
 (let (($x726 (= cell_7_7 8)))
 (let (($x725 (= cell_7_7 7)))
 (let (($x724 (= cell_7_7 6)))
 (let (($x723 (= cell_7_7 5)))
 (let (($x722 (= cell_7_7 4)))
 (let (($x721 (= cell_7_7 3)))
 (let (($x720 (= cell_7_7 2)))
 (let (($x119 (= cell_7_7 1)))
 (or $x119 $x720 $x721 $x722 $x723 $x724 $x725 $x726 $x727)))))))))))
(assert
 (let (($x737 (= cell_8_7 9)))
 (let (($x736 (= cell_8_7 8)))
 (let (($x735 (= cell_8_7 7)))
 (let (($x734 (= cell_8_7 6)))
 (let (($x733 (= cell_8_7 5)))
 (let (($x732 (= cell_8_7 4)))
 (let (($x731 (= cell_8_7 3)))
 (let (($x730 (= cell_8_7 2)))
 (let (($x729 (= cell_8_7 1)))
 (or $x729 $x730 $x731 $x732 $x733 $x734 $x735 $x736 $x737)))))))))))
(assert
 (let (($x747 (= cell_9_7 9)))
 (let (($x746 (= cell_9_7 8)))
 (let (($x745 (= cell_9_7 7)))
 (let (($x744 (= cell_9_7 6)))
 (let (($x743 (= cell_9_7 5)))
 (let (($x742 (= cell_9_7 4)))
 (let (($x741 (= cell_9_7 3)))
 (let (($x740 (= cell_9_7 2)))
 (let (($x739 (= cell_9_7 1)))
 (or $x739 $x740 $x741 $x742 $x743 $x744 $x745 $x746 $x747)))))))))))
(assert
 (let (($x757 (= cell_1_8 9)))
 (let (($x756 (= cell_1_8 8)))
 (let (($x755 (= cell_1_8 7)))
 (let (($x754 (= cell_1_8 6)))
 (let (($x753 (= cell_1_8 5)))
 (let (($x752 (= cell_1_8 4)))
 (let (($x751 (= cell_1_8 3)))
 (let (($x750 (= cell_1_8 2)))
 (let (($x749 (= cell_1_8 1)))
 (or $x749 $x750 $x751 $x752 $x753 $x754 $x755 $x756 $x757)))))))))))
(assert
 (let (($x767 (= cell_2_8 9)))
 (let (($x766 (= cell_2_8 8)))
 (let (($x765 (= cell_2_8 7)))
 (let (($x764 (= cell_2_8 6)))
 (let (($x763 (= cell_2_8 5)))
 (let (($x762 (= cell_2_8 4)))
 (let (($x761 (= cell_2_8 3)))
 (let (($x760 (= cell_2_8 2)))
 (let (($x759 (= cell_2_8 1)))
 (or $x759 $x760 $x761 $x762 $x763 $x764 $x765 $x766 $x767)))))))))))
(assert
 (let (($x776 (= cell_3_8 9)))
 (let (($x775 (= cell_3_8 8)))
 (let (($x774 (= cell_3_8 7)))
 (let (($x773 (= cell_3_8 6)))
 (let (($x772 (= cell_3_8 5)))
 (let (($x771 (= cell_3_8 4)))
 (let (($x770 (= cell_3_8 3)))
 (let (($x769 (= cell_3_8 2)))
 (let (($x114 (= cell_3_8 1)))
 (or $x114 $x769 $x770 $x771 $x772 $x773 $x774 $x775 $x776)))))))))))
(assert
 (let (($x785 (= cell_4_8 9)))
 (let (($x784 (= cell_4_8 8)))
 (let (($x783 (= cell_4_8 7)))
 (let (($x782 (= cell_4_8 6)))
 (let (($x781 (= cell_4_8 5)))
 (let (($x780 (= cell_4_8 4)))
 (let (($x779 (= cell_4_8 3)))
 (let (($x115 (= cell_4_8 2)))
 (let (($x778 (= cell_4_8 1)))
 (or $x778 $x115 $x779 $x780 $x781 $x782 $x783 $x784 $x785)))))))))))
(assert
 (let (($x795 (= cell_5_8 9)))
 (let (($x794 (= cell_5_8 8)))
 (let (($x793 (= cell_5_8 7)))
 (let (($x792 (= cell_5_8 6)))
 (let (($x791 (= cell_5_8 5)))
 (let (($x790 (= cell_5_8 4)))
 (let (($x789 (= cell_5_8 3)))
 (let (($x788 (= cell_5_8 2)))
 (let (($x787 (= cell_5_8 1)))
 (or $x787 $x788 $x789 $x790 $x791 $x792 $x793 $x794 $x795)))))))))))
(assert
 (let (($x805 (= cell_6_8 9)))
 (let (($x804 (= cell_6_8 8)))
 (let (($x803 (= cell_6_8 7)))
 (let (($x802 (= cell_6_8 6)))
 (let (($x801 (= cell_6_8 5)))
 (let (($x800 (= cell_6_8 4)))
 (let (($x799 (= cell_6_8 3)))
 (let (($x798 (= cell_6_8 2)))
 (let (($x797 (= cell_6_8 1)))
 (or $x797 $x798 $x799 $x800 $x801 $x802 $x803 $x804 $x805)))))))))))
(assert
 (let (($x815 (= cell_7_8 9)))
 (let (($x814 (= cell_7_8 8)))
 (let (($x813 (= cell_7_8 7)))
 (let (($x812 (= cell_7_8 6)))
 (let (($x811 (= cell_7_8 5)))
 (let (($x810 (= cell_7_8 4)))
 (let (($x809 (= cell_7_8 3)))
 (let (($x808 (= cell_7_8 2)))
 (let (($x807 (= cell_7_8 1)))
 (or $x807 $x808 $x809 $x810 $x811 $x812 $x813 $x814 $x815)))))))))))
(assert
 (let (($x825 (= cell_8_8 9)))
 (let (($x824 (= cell_8_8 8)))
 (let (($x823 (= cell_8_8 7)))
 (let (($x822 (= cell_8_8 6)))
 (let (($x821 (= cell_8_8 5)))
 (let (($x820 (= cell_8_8 4)))
 (let (($x819 (= cell_8_8 3)))
 (let (($x818 (= cell_8_8 2)))
 (let (($x817 (= cell_8_8 1)))
 (or $x817 $x818 $x819 $x820 $x821 $x822 $x823 $x824 $x825)))))))))))
(assert
 (let (($x835 (= cell_9_8 9)))
 (let (($x834 (= cell_9_8 8)))
 (let (($x833 (= cell_9_8 7)))
 (let (($x832 (= cell_9_8 6)))
 (let (($x831 (= cell_9_8 5)))
 (let (($x830 (= cell_9_8 4)))
 (let (($x829 (= cell_9_8 3)))
 (let (($x828 (= cell_9_8 2)))
 (let (($x827 (= cell_9_8 1)))
 (or $x827 $x828 $x829 $x830 $x831 $x832 $x833 $x834 $x835)))))))))))
(assert
 (let (($x845 (= cell_1_9 9)))
 (let (($x844 (= cell_1_9 8)))
 (let (($x843 (= cell_1_9 7)))
 (let (($x842 (= cell_1_9 6)))
 (let (($x841 (= cell_1_9 5)))
 (let (($x840 (= cell_1_9 4)))
 (let (($x839 (= cell_1_9 3)))
 (let (($x838 (= cell_1_9 2)))
 (let (($x837 (= cell_1_9 1)))
 (or $x837 $x838 $x839 $x840 $x841 $x842 $x843 $x844 $x845)))))))))))
(assert
 (let (($x855 (= cell_2_9 9)))
 (let (($x854 (= cell_2_9 8)))
 (let (($x853 (= cell_2_9 7)))
 (let (($x852 (= cell_2_9 6)))
 (let (($x851 (= cell_2_9 5)))
 (let (($x850 (= cell_2_9 4)))
 (let (($x849 (= cell_2_9 3)))
 (let (($x848 (= cell_2_9 2)))
 (let (($x847 (= cell_2_9 1)))
 (or $x847 $x848 $x849 $x850 $x851 $x852 $x853 $x854 $x855)))))))))))
(assert
 (let (($x865 (= cell_3_9 9)))
 (let (($x864 (= cell_3_9 8)))
 (let (($x863 (= cell_3_9 7)))
 (let (($x862 (= cell_3_9 6)))
 (let (($x861 (= cell_3_9 5)))
 (let (($x860 (= cell_3_9 4)))
 (let (($x859 (= cell_3_9 3)))
 (let (($x858 (= cell_3_9 2)))
 (let (($x857 (= cell_3_9 1)))
 (or $x857 $x858 $x859 $x860 $x861 $x862 $x863 $x864 $x865)))))))))))
(assert
 (let (($x874 (= cell_4_9 9)))
 (let (($x873 (= cell_4_9 8)))
 (let (($x872 (= cell_4_9 7)))
 (let (($x871 (= cell_4_9 6)))
 (let (($x870 (= cell_4_9 5)))
 (let (($x869 (= cell_4_9 4)))
 (let (($x868 (= cell_4_9 3)))
 (let (($x867 (= cell_4_9 2)))
 (let (($x116 (= cell_4_9 1)))
 (or $x116 $x867 $x868 $x869 $x870 $x871 $x872 $x873 $x874)))))))))))
(assert
 (let (($x884 (= cell_5_9 9)))
 (let (($x883 (= cell_5_9 8)))
 (let (($x882 (= cell_5_9 7)))
 (let (($x881 (= cell_5_9 6)))
 (let (($x880 (= cell_5_9 5)))
 (let (($x879 (= cell_5_9 4)))
 (let (($x878 (= cell_5_9 3)))
 (let (($x877 (= cell_5_9 2)))
 (let (($x876 (= cell_5_9 1)))
 (or $x876 $x877 $x878 $x879 $x880 $x881 $x882 $x883 $x884)))))))))))
(assert
 (let (($x894 (= cell_6_9 9)))
 (let (($x893 (= cell_6_9 8)))
 (let (($x892 (= cell_6_9 7)))
 (let (($x891 (= cell_6_9 6)))
 (let (($x890 (= cell_6_9 5)))
 (let (($x889 (= cell_6_9 4)))
 (let (($x888 (= cell_6_9 3)))
 (let (($x887 (= cell_6_9 2)))
 (let (($x886 (= cell_6_9 1)))
 (or $x886 $x887 $x888 $x889 $x890 $x891 $x892 $x893 $x894)))))))))))
(assert
 (let (($x904 (= cell_7_9 9)))
 (let (($x903 (= cell_7_9 8)))
 (let (($x902 (= cell_7_9 7)))
 (let (($x901 (= cell_7_9 6)))
 (let (($x900 (= cell_7_9 5)))
 (let (($x899 (= cell_7_9 4)))
 (let (($x898 (= cell_7_9 3)))
 (let (($x897 (= cell_7_9 2)))
 (let (($x896 (= cell_7_9 1)))
 (or $x896 $x897 $x898 $x899 $x900 $x901 $x902 $x903 $x904)))))))))))
(assert
 (let (($x914 (= cell_8_9 9)))
 (let (($x913 (= cell_8_9 8)))
 (let (($x912 (= cell_8_9 7)))
 (let (($x911 (= cell_8_9 6)))
 (let (($x910 (= cell_8_9 5)))
 (let (($x909 (= cell_8_9 4)))
 (let (($x908 (= cell_8_9 3)))
 (let (($x907 (= cell_8_9 2)))
 (let (($x906 (= cell_8_9 1)))
 (or $x906 $x907 $x908 $x909 $x910 $x911 $x912 $x913 $x914)))))))))))
(assert
 (let (($x924 (= cell_9_9 9)))
 (let (($x923 (= cell_9_9 8)))
 (let (($x922 (= cell_9_9 7)))
 (let (($x921 (= cell_9_9 6)))
 (let (($x920 (= cell_9_9 5)))
 (let (($x919 (= cell_9_9 4)))
 (let (($x918 (= cell_9_9 3)))
 (let (($x917 (= cell_9_9 2)))
 (let (($x916 (= cell_9_9 1)))
 (or $x916 $x917 $x918 $x919 $x920 $x921 $x922 $x923 $x924)))))))))))
(assert
 (and (distinct cell_1_1 cell_1_2 cell_1_3 cell_1_4 cell_1_5 cell_1_6 cell_1_7 cell_1_8 cell_1_9) true))
(assert
 (and (distinct cell_2_1 cell_2_2 cell_2_3 cell_2_4 cell_2_5 cell_2_6 cell_2_7 cell_2_8 cell_2_9) true))
(assert
 (and (distinct cell_3_1 cell_3_2 cell_3_3 cell_3_4 cell_3_5 cell_3_6 cell_3_7 cell_3_8 cell_3_9) true))
(assert
 (and (distinct cell_4_1 cell_4_2 cell_4_3 cell_4_4 cell_4_5 cell_4_6 cell_4_7 cell_4_8 cell_4_9) true))
(assert
 (and (distinct cell_5_1 cell_5_2 cell_5_3 cell_5_4 cell_5_5 cell_5_6 cell_5_7 cell_5_8 cell_5_9) true))
(assert
 (and (distinct cell_6_1 cell_6_2 cell_6_3 cell_6_4 cell_6_5 cell_6_6 cell_6_7 cell_6_8 cell_6_9) true))
(assert
 (and (distinct cell_7_1 cell_7_2 cell_7_3 cell_7_4 cell_7_5 cell_7_6 cell_7_7 cell_7_8 cell_7_9) true))
(assert
 (and (distinct cell_8_1 cell_8_2 cell_8_3 cell_8_4 cell_8_5 cell_8_6 cell_8_7 cell_8_8 cell_8_9) true))
(assert
 (and (distinct cell_9_1 cell_9_2 cell_9_3 cell_9_4 cell_9_5 cell_9_6 cell_9_7 cell_9_8 cell_9_9) true))
(assert
 (and (distinct cell_1_1 cell_2_1 cell_3_1 cell_4_1 cell_5_1 cell_6_1 cell_7_1 cell_8_1 cell_9_1) true))
(assert
 (and (distinct cell_1_2 cell_2_2 cell_3_2 cell_4_2 cell_5_2 cell_6_2 cell_7_2 cell_8_2 cell_9_2) true))
(assert
 (and (distinct cell_1_3 cell_2_3 cell_3_3 cell_4_3 cell_5_3 cell_6_3 cell_7_3 cell_8_3 cell_9_3) true))
(assert
 (and (distinct cell_1_4 cell_2_4 cell_3_4 cell_4_4 cell_5_4 cell_6_4 cell_7_4 cell_8_4 cell_9_4) true))
(assert
 (and (distinct cell_1_5 cell_2_5 cell_3_5 cell_4_5 cell_5_5 cell_6_5 cell_7_5 cell_8_5 cell_9_5) true))
(assert
 (and (distinct cell_1_6 cell_2_6 cell_3_6 cell_4_6 cell_5_6 cell_6_6 cell_7_6 cell_8_6 cell_9_6) true))
(assert
 (and (distinct cell_1_7 cell_2_7 cell_3_7 cell_4_7 cell_5_7 cell_6_7 cell_7_7 cell_8_7 cell_9_7) true))
(assert
 (and (distinct cell_1_8 cell_2_8 cell_3_8 cell_4_8 cell_5_8 cell_6_8 cell_7_8 cell_8_8 cell_9_8) true))
(assert
 (and (distinct cell_1_9 cell_2_9 cell_3_9 cell_4_9 cell_5_9 cell_6_9 cell_7_9 cell_8_9 cell_9_9) true))
(assert
 (and (distinct cell_1_1 cell_1_2 cell_1_3 cell_2_1 cell_2_2 cell_2_3 cell_3_1 cell_3_2 cell_3_3) true))
(assert
 (and (distinct cell_1_4 cell_1_5 cell_1_6 cell_2_4 cell_2_5 cell_2_6 cell_3_4 cell_3_5 cell_3_6) true))
(assert
 (and (distinct cell_1_7 cell_1_8 cell_1_9 cell_2_7 cell_2_8 cell_2_9 cell_3_7 cell_3_8 cell_3_9) true))
(assert
 (and (distinct cell_4_1 cell_4_2 cell_4_3 cell_5_1 cell_5_2 cell_5_3 cell_6_1 cell_6_2 cell_6_3) true))
(assert
 (and (distinct cell_4_4 cell_4_5 cell_4_6 cell_5_4 cell_5_5 cell_5_6 cell_6_4 cell_6_5 cell_6_6) true))
(assert
 (and (distinct cell_4_7 cell_4_8 cell_4_9 cell_5_7 cell_5_8 cell_5_9 cell_6_7 cell_6_8 cell_6_9) true))
(assert
 (and (distinct cell_7_1 cell_7_2 cell_7_3 cell_8_1 cell_8_2 cell_8_3 cell_9_1 cell_9_2 cell_9_3) true))
(assert
 (and (distinct cell_7_4 cell_7_5 cell_7_6 cell_8_4 cell_8_5 cell_8_6 cell_9_4 cell_9_5 cell_9_6) true))
(assert
 (and (distinct cell_7_7 cell_7_8 cell_7_9 cell_8_7 cell_8_8 cell_8_9 cell_9_7 cell_9_8 cell_9_9) true))
(assert
 (let (($x960 (and (distinct cell_5_9 cell_6_8 cell_7_7 cell_8_6) true)))
 (let (($x959 (and (distinct cell_2_9 cell_3_8 cell_4_7 cell_5_6 cell_6_5 cell_7_4 cell_8_3 cell_9_2) true)))
 (let (($x958 (and (distinct cell_1_8 cell_2_7 cell_3_6 cell_4_5 cell_5_4 cell_6_3 cell_7_2 cell_8_1) true)))
 (let (($x957 (and (distinct cell_1_5 cell_2_4 cell_3_3 cell_4_2) true)))
 (let (($x956 (and (distinct cell_5_1 cell_6_2 cell_7_3 cell_8_4) true)))
 (let (($x955 (and (distinct cell_2_1 cell_3_2 cell_4_3 cell_5_4 cell_6_5 cell_7_6 cell_8_7 cell_9_8) true)))
 (let (($x954 (and (distinct cell_1_2 cell_2_3 cell_3_4 cell_4_5 cell_5_6 cell_6_7 cell_7_8 cell_8_9) true)))
 (let (($x953 (and (distinct cell_1_5 cell_2_6 cell_3_7 cell_4_8) true)))
 (and $x953 $x954 $x955 $x956 $x957 $x958 $x959 $x960))))))))))
(assert
 (= cell_5_3 2))
(check-sat)
